
  22    4
  10   10   10   10

   0   0   0   0   0   1 2 
   5  10  10  10  10   3 11 6 3 
   8  10  10  10  10   5 21 9 8 5 4 
  10  10  10  10  10   4 20 13 10 7 
   7  10  10  10  10   3 20 10 7 
   6  10  10  10  10   3 20 10 7 
   8  10  10  10  10   5 19 18 17 15 12 
   7  10  10  10  10   4 19 18 16 10 
   1  10  10  10  10   6 20 18 17 16 15 14 
   9  10  10  10  10   3 17 15 14 
   6  10  10  10  10   3 17 16 14 
   3  10  10  10  10   2 16 14 
   9  10  10  10  10   1 15 
   8  10  10  10  10   1 22
   2  10  10  10  10   1 22
   3  10  10  10  10   1 22
   7  10  10  10  10   1 22
   5  10  10  10  10   1 22
  10  10  10  10  10   1 22
  10  10  10  10  10   1 22
   2  10  10  10  10   1 22
   0   0   0   0   0   0 
